certificates/rado_a15_c94_N42.drat
-38 -42 0
5 6 -42 0
6 7 -42 0
7 -42 0
d 6 7 -42 0
-4 -42 0
d -8 -4 -42 0
-42 0
-4 0
38 0
8 0
-34 0
-12 0
-5 -6 0
d -5 -1 -6 0
15 19 0
d 15 6 19 0
-6 -7 0
-7 0
1 0
15 0
18 0
23 0
31 0
41 0
-27 0
0
